c description: Random 3-CNF over 14 variables and 28 clauses
p cnf 14 28
-5 -7 11 0
1 -11 -14 0
9 -12 14 0
6 10 -14 0
-2 -6 -11 0
2 9 14 0
-2 -10 13 0
7 -8 -14 0
1 -3 8 0
-5 7 -10 0
3 8 11 0
3 -9 10 0
-3 12 -14 0
-4 9 -12 0
-4 -6 -9 0
9 -11 -14 0
-1 12 -14 0
-7 -10 12 0
2 -7 14 0
9 12 13 0
-2 3 -10 0
2 -4 -8 0
-8 11 12 0
-7 -8 13 0
-5 -6 14 0
6 9 10 0
-6 -8 -9 0
-6 10 13 0